(set-logic UFDT)
(declare-datatypes ((nat 0)) (((zero) (s (s0 nat)))))
(declare-fun add (nat nat) nat)
(non-erasing add 2)
(injective add (true true))
(declare-fun leq (nat nat) Bool)
(assert (forall ((y nat)) (= (add zero y) y)))
(assert (forall ((x nat) (y nat)) (= (add (s x) y) (s (add x y)))))
(assert (forall ((y nat)) (leq zero y)))
(assert (forall ((x nat)) (not (leq (s x) zero))))
(assert (forall ((x nat) (y nat)) (= (leq (s x) (s y)) (leq x y))))
(assert (not (forall ((v0 nat) (v1 nat) (v2 nat) (v3 nat) (v4 nat) (v5 nat) (v6 nat) (v7 nat) (v8 nat) (v9 nat)) (= (s (add v1 (s (add (add (add (s v9) v3) (add (s (add (s (s (add (s v4) (s v8)))) (s v7))) (add v0 (s (add v2 (s (add (s v6) v5))))))) (s v8))))) (s (add v1 (s (add (s (add (add (s (s v6)) (s v9)) v3)) (add (add (add (add v7 (add (s v2) (add (s v4) (s (s v8))))) (s (s v5))) v8) (s v0))))))))))
(check-sat)
